3
20
4530
[[  8,960,576,155,242,659,642,957, 72,539,932,503,598,371,637,944,114,267,882,345],
 [463,451,795,343,605,451,818,359,787,468, 35,385,605,318,140,415,617, 48,482,539],
 [307,751,736,900,481,574,968,  9,180,827,973,984,685,344, 43,881,251,238,704,394]]
[ 51,963,695, 81,781,134,427,414,509,893,891, 53,876,826,213,171,168,823, 62, 30]